p edge 80 612
v 1 5
v 2 8
v 3 1
v 4 2
v 5 7
v 6 2
v 7 5
v 8 6
v 9 4
v 10 10
v 11 3
v 12 8
v 13 9
v 14 4
v 15 2
v 16 7
v 17 1
v 18 2
v 19 5
v 20 4
v 21 5
v 22 9
v 23 2
v 24 4
v 25 1
v 26 9
v 27 2
v 28 9
v 29 4
v 30 9
v 31 2
v 32 9
v 33 6
v 34 3
v 35 1
v 36 3
v 37 4
v 38 5
v 39 8
v 40 8
v 41 5
v 42 1
v 43 5
v 44 3
v 45 4
v 46 6
v 47 10
v 48 5
v 49 7
v 50 4
v 51 8
v 52 2
v 53 2
v 54 10
v 55 6
v 56 3
v 57 9
v 58 7
v 59 2
v 60 3
v 61 5
v 62 4
v 63 1
v 64 1
v 65 6
v 66 1
v 67 3
v 68 10
v 69 6
v 70 1
v 71 7
v 72 10
v 73 1
v 74 2
v 75 3
v 76 5
v 77 7
v 78 3
v 79 9
v 80 4
e 1 6
e 1 16
e 1 18
e 1 19
e 1 24
e 1 25
e 1 33
e 1 36
e 1 39
e 1 41
e 1 44
e 1 48
e 1 58
e 1 61
e 1 62
e 1 63
e 1 64
e 1 65
e 1 67
e 1 70
e 1 73
e 1 76
e 1 78
e 2 5
e 2 22
e 2 28
e 2 31
e 2 35
e 2 43
e 2 45
e 2 53
e 2 55
e 2 56
e 2 80
e 3 4
e 3 7
e 3 9
e 3 15
e 3 20
e 3 26
e 3 34
e 3 46
e 3 47
e 3 50
e 3 54
e 3 68
e 4 7
e 4 8
e 4 9
e 4 15
e 4 20
e 4 22
e 4 26
e 4 32
e 4 34
e 4 46
e 4 47
e 4 50
e 4 54
e 4 68
e 4 72
e 4 75
e 5 10
e 5 14
e 5 28
e 5 31
e 5 35
e 5 40
e 5 45
e 5 52
e 5 53
e 5 55
e 5 69
e 5 77
e 5 80
e 6 16
e 6 18
e 6 19
e 6 24
e 6 33
e 6 36
e 6 39
e 6 41
e 6 44
e 6 48
e 6 62
e 6 64
e 6 65
e 6 67
e 6 73
e 6 78
e 7 8
e 7 9
e 7 11
e 7 15
e 7 22
e 7 26
e 7 30
e 7 34
e 7 43
e 7 46
e 7 47
e 7 50
e 7 54
e 7 56
e 7 68
e 7 75
e 8 9
e 8 11
e 8 12
e 8 20
e 8 22
e 8 27
e 8 29
e 8 30
e 8 32
e 8 34
e 8 42
e 8 46
e 8 47
e 8 54
e 8 56
e 8 60
e 8 68
e 8 72
e 8 75
e 9 11
e 9 15
e 9 20
e 9 22
e 9 26
e 9 27
e 9 32
e 9 34
e 9 46
e 9 47
e 9 50
e 9 54
e 9 68
e 9 72
e 9 75
e 10 14
e 10 28
e 10 35
e 10 40
e 10 45
e 10 52
e 10 55
e 10 69
e 10 77
e 10 80
e 11 12
e 11 20
e 11 22
e 11 27
e 11 29
e 11 30
e 11 32
e 11 34
e 11 42
e 11 46
e 11 47
e 11 51
e 11 54
e 11 56
e 11 60
e 11 68
e 11 72
e 11 75
e 12 29
e 12 30
e 12 39
e 12 42
e 12 51
e 12 60
e 12 61
e 12 70
e 12 75
e 12 76
e 13 21
e 13 29
e 13 37
e 13 38
e 13 41
e 13 49
e 13 51
e 13 57
e 13 60
e 13 66
e 13 70
e 13 71
e 13 76
e 14 28
e 14 35
e 14 40
e 14 45
e 14 52
e 14 55
e 14 69
e 14 77
e 14 80
e 15 26
e 15 34
e 15 46
e 15 50
e 15 54
e 16 17
e 16 18
e 16 23
e 16 25
e 16 33
e 16 44
e 16 48
e 16 58
e 16 59
e 16 62
e 16 63
e 16 64
e 16 67
e 16 73
e 16 74
e 16 78
e 16 79
e 17 23
e 17 25
e 17 28
e 17 35
e 17 40
e 17 52
e 17 58
e 17 59
e 17 61
e 17 63
e 17 69
e 17 77
e 17 79
e 17 80
e 18 19
e 18 24
e 18 25
e 18 33
e 18 36
e 18 44
e 18 48
e 18 62
e 18 64
e 18 67
e 18 73
e 18 74
e 18 78
e 19 24
e 19 33
e 19 36
e 19 39
e 19 41
e 19 44
e 19 48
e 19 64
e 19 65
e 19 67
e 19 70
e 19 71
e 19 76
e 19 78
e 20 27
e 20 32
e 20 46
e 20 68
e 20 72
e 20 75
e 21 27
e 21 37
e 21 38
e 21 49
e 21 51
e 21 57
e 21 66
e 22 30
e 22 31
e 22 32
e 22 34
e 22 42
e 22 43
e 22 46
e 22 47
e 22 54
e 22 56
e 22 75
e 23 25
e 23 35
e 23 40
e 23 44
e 23 52
e 23 58
e 23 59
e 23 62
e 23 63
e 23 73
e 23 74
e 23 78
e 23 79
e 24 33
e 24 36
e 24 39
e 24 41
e 24 44
e 24 48
e 24 62
e 24 64
e 24 65
e 24 67
e 24 73
e 24 78
e 25 40
e 25 44
e 25 58
e 25 59
e 25 61
e 25 62
e 25 63
e 25 73
e 25 74
e 25 78
e 25 79
e 26 34
e 26 46
e 26 47
e 26 50
e 26 54
e 26 68
e 27 29
e 27 32
e 27 46
e 27 51
e 27 66
e 27 68
e 27 72
e 27 75
e 28 31
e 28 35
e 28 40
e 28 43
e 28 45
e 28 52
e 28 53
e 28 55
e 28 56
e 28 69
e 28 77
e 28 80
e 29 30
e 29 39
e 29 42
e 29 51
e 29 60
e 29 61
e 29 70
e 29 75
e 29 76
e 30 31
e 30 32
e 30 34
e 30 42
e 30 46
e 30 47
e 30 54
e 30 56
e 30 60
e 30 61
e 30 75
e 31 35
e 31 43
e 31 45
e 31 52
e 31 53
e 31 55
e 31 56
e 31 80
e 32 34
e 32 46
e 32 47
e 32 54
e 32 68
e 32 72
e 32 75
e 33 36
e 33 39
e 33 41
e 33 44
e 33 48
e 33 62
e 33 64
e 33 65
e 33 67
e 33 70
e 33 73
e 33 76
e 33 78
e 34 43
e 34 46
e 34 47
e 34 50
e 34 54
e 34 56
e 34 68
e 34 75
e 35 40
e 35 45
e 35 52
e 35 55
e 35 58
e 35 59
e 35 63
e 35 69
e 35 77
e 35 79
e 35 80
e 36 39
e 36 41
e 36 44
e 36 48
e 36 64
e 36 65
e 36 67
e 36 70
e 36 71
e 36 73
e 36 76
e 36 78
e 37 38
e 37 49
e 37 51
e 37 57
e 37 66
e 38 49
e 38 51
e 38 57
e 38 66
e 38 71
e 38 76
e 39 41
e 39 44
e 39 48
e 39 51
e 39 60
e 39 61
e 39 65
e 39 67
e 39 70
e 39 71
e 39 76
e 39 78
e 40 52
e 40 55
e 40 58
e 40 59
e 40 63
e 40 69
e 40 77
e 40 79
e 40 80
e 41 48
e 41 49
e 41 65
e 41 67
e 41 70
e 41 71
e 41 76
e 42 47
e 42 51
e 42 56
e 42 60
e 42 61
e 42 70
e 42 75
e 43 45
e 43 47
e 43 53
e 43 54
e 43 56
e 44 48
e 44 58
e 44 61
e 44 62
e 44 63
e 44 64
e 44 65
e 44 67
e 44 70
e 44 73
e 44 74
e 44 78
e 45 52
e 45 53
e 45 55
e 45 56
e 45 69
e 45 77
e 45 80
e 46 47
e 46 50
e 46 54
e 46 56
e 46 68
e 46 72
e 46 75
e 47 50
e 47 54
e 47 56
e 47 68
e 47 75
e 48 62
e 48 64
e 48 65
e 48 67
e 48 70
e 48 73
e 48 78
e 49 51
e 49 57
e 49 66
e 49 71
e 49 76
e 50 54
e 51 57
e 51 60
e 51 66
e 51 70
e 51 71
e 51 76
e 52 55
e 52 58
e 52 59
e 52 63
e 52 69
e 52 77
e 52 79
e 52 80
e 53 55
e 54 56
e 54 68
e 54 75
e 55 69
e 55 77
e 55 80
e 56 61
e 56 75
e 56 80
e 57 66
e 57 71
e 57 76
e 58 59
e 58 61
e 58 63
e 58 73
e 58 78
e 58 79
e 58 80
e 59 63
e 59 69
e 59 74
e 59 77
e 59 79
e 59 80
e 60 61
e 60 70
e 60 75
e 60 76
e 61 63
e 61 70
e 61 78
e 61 79
e 61 80
e 62 64
e 62 67
e 62 73
e 62 74
e 62 78
e 63 73
e 63 74
e 63 78
e 63 79
e 63 80
e 64 67
e 64 73
e 64 74
e 64 78
e 65 67
e 65 70
e 65 71
e 65 76
e 67 70
e 67 73
e 67 78
e 68 72
e 68 75
e 69 77
e 69 79
e 69 80
e 70 71
e 70 76
e 70 78
e 71 76
e 72 75
e 73 74
e 73 78
e 73 79
e 74 78
e 77 79
e 77 80
e 78 79
e 79 80
